(declare-sort sk2 0)
(declare-sort sk 0)
(declare-datatype list ((nil) (cons (head sk) (tail list))))
(declare-datatype Nat ((Z) (S (proj1-S Nat))))
(declare-fun take (Nat list) list)
(declare-fun drop (Nat list) list)
(declare-fun +2 (Nat Nat) Nat)
(assert (forall ((y Nat)) (= (+2 Z y) y)))
(assert (forall ((y Nat) (z Nat)) (= (+2 (S z) y) (S (+2 z y)))))
(assert (forall ((y list)) (= (take Z y) nil)))
(assert (forall ((z Nat)) (= (take (S z) nil) nil)))
(assert
  (forall ((z Nat) (x2 sk) (x3 list))
    (= (take (S z) (cons x2 x3)) (cons x2 (take z x3)))))
(assert (forall ((y list)) (= (drop Z y) y)))
(assert (forall ((z Nat)) (= (drop (S z) nil) nil)))
(assert
  (forall ((z Nat) (x2 sk) (x3 list))
    (= (drop (S z) (cons x2 x3)) (drop z x3))))
